%nprocshared=40
%mem=90gb
%chk=planar_alignedXY_NICS.chk
#p nmr=giao wb97x/aug-cc-pvdz nosymm guess=save

File Created by py.Aroma 5

0 1
C      2.435396      -0.689423      -0.000297
C      2.423759      0.728940      -0.000092
C      1.233390      1.410747      0.000035
C      -0.005811      0.711485      0.000035
C      0.005804      -0.710637      0.000035
C      1.255946      -1.390177      -0.000159
C      -1.233092      -1.410511      -0.000033
C      -2.423815      -0.729105      0.000089
C      -2.435341      0.689257      0.000299
C      -1.256251      1.390405      0.000171
H      3.387353      -1.221441      -0.000526
H      3.367262      1.275875      -0.000214
H      1.221350      2.502001      0.000272
H      1.262147      -2.481468      -0.000373
H      -1.221413      -2.501754      -0.000292
H      -3.366958      -1.276610      0.000191
H      -3.387645      1.220703      0.000499
H      -1.262080      2.481712      0.000362
Bq      1.224652      0.010225      -1.000074
Bq      1.224842      0.010086      0.999926
Bq      -1.224685      -0.009924      1.000099
Bq      -1.224817      -0.009778      -0.999901
Bq      -0.000001      0.000084      0.000007
Bq      1.224747      0.010156      -0.000074
Bq      -1.224751      -0.009851      0.000099


