%nprocshared=40
%mem=90gb
%chk=normal_opt_NICS.chk
#p nmr=giao wb97x/aug-cc-pvdz nosymm guess=save

File Created by py.Aroma 5

0 1
C      2.495478      -0.691469      0.000000
C      2.394779      0.738312      0.000000
C      1.188482      1.362020      0.000000
N      -0.000063      0.656404      0.000000
B      0.000059      -0.809827      0.000000
C      1.374044      -1.471178      0.000000
C      -1.373817      -1.471406      0.000000
C      -2.495380      -0.691882      0.000000
C      -2.394918      0.737916      0.000000
C      -1.188723      1.361823      0.000000
H      3.495244      -1.132142      0.000000
H      3.294267      1.351541      0.000000
H      1.103465      2.448604      0.000000
H      1.495893      -2.556550      0.000000
H      -1.495487      -2.556798      0.000000
H      -3.495074      -1.132719      0.000000
H      -3.294506      1.350998      0.000000
H      -1.103887      2.448421      0.000000
Bq      1.242130      -0.035956      1.000000
Bq      1.242130      -0.035956      -1.000000
Bq      -1.242140      -0.036162      1.000000
Bq      -1.242140      -0.036162      -1.000000
Bq      -0.000008      -0.003218      0.000000
Bq      1.242130      -0.035956      0.000000
Bq      -1.242140      -0.036162      0.000000
Bq      -0.000002      -0.076712      1.000000
Bq      -0.000002      -0.076712      -1.000000


