$molecule
0 1
C 2.362783 -0.699893 -0.001711
C 2.362782 0.699393 -0.001535
C 1.169687 1.437826 0.000000
C 0.000000 0.696697 0.000000
C -0.000000 -0.696697 0.000000
C 1.169308 -1.438346 -0.000543
C -1.525271 -0.791817 0.022076
C -2.169164 -0.670736 1.397646
C -2.168976 0.669496 1.397885
C -1.525381 0.790814 0.022518
H 3.318117 -1.227035 -0.005815
H 3.318499 1.225847 -0.005501
H 1.184993 2.528198 -0.008612
H 1.185195 -2.528689 -0.009278
H -2.032556 -1.367669 -0.759241
H -2.449638 -1.420810 2.136861
H -2.450387 1.419471 2.136825
H -2.032906 1.366877 -0.758597
$end

$rem
METHOD     wB97xD
BASIS      aug-cc-pvdz
NBO        1        ! NBO5 Aufruf
MAKE_CUBE_FILES TRUE
PLOTS TRUE
$end

$nbo
PLOT
$end

$plots
grid_range (-6,6) (-6,6) (-4,4)
grid_spacing 0.12
nbo_state 0
natural_bond_orbital 286
 $end
