$molecule
0 1
C 2.425531 -0.501741 -0.077669
C 2.308350 0.923150 -0.043179
C 1.075026 1.526869 -0.000000
N -0.000000 0.714568 -0.000000
B 0.000000 -0.714568 0.000000
C 1.353039 -1.374555 -0.060580
C -1.618381 -0.731778 0.102354
C -2.193631 -0.518166 1.494843
C -2.039173 0.814661 1.498928
C -1.466754 0.840327 0.091589
H 3.443158 -0.902514 -0.116603
H 3.205089 1.540606 -0.055248
H 0.933470 2.608378 0.021388
H 1.561986 -2.444985 -0.089306
H -2.244958 -1.226873 -0.647449
H -2.550756 -1.224736 2.244902
H -2.183064 1.593281 2.246757
H -1.929302 1.466036 -0.680122
$end

$rem
METHOD     wB97xD
BASIS      aug-cc-pvdz
NBO        1        ! NBO5 Aufruf
MAKE_CUBE_FILES TRUE
PLOTS TRUE
$end

$nbo
PLOT
$end

$plots
grid_range (-6,6) (-6,6) (-4,4)
grid_spacing 0.12
nbo_state 0
natural_bond_orbital XXX
$end

