%nprocshared=40
%mem=90gb
%chk=dewar_opt_aligendXY_NICS.chk
#p nmr=giao wb97x/aug-cc-pvdz nosymm guess=save

File Created by py.Aroma 5

0 1
C      2.362783      -0.699893      -0.001711
C      2.362782      0.699393      -0.001535
C      1.169687      1.437826      0.000000
C      0.000000      0.696697      0.000000
C      -0.000000      -0.696697      0.000000
C      1.169308      -1.438346      -0.000543
C      -1.525271      -0.791817      0.022076
C      -2.169164      -0.670736      1.397646
C      -2.168976      0.669496      1.397885
C      -1.525381      0.790814      0.022518
H      3.318117      -1.227035      -0.005815
H      3.318499      1.225847      -0.005501
H      1.184993      2.528198      -0.008612
H      1.185195      -2.528689      -0.009278
H      -2.032556      -1.367669      -0.759241
H      -2.449638      -1.420810      2.136861
H      -2.450387      1.419471      2.136825
H      -2.032906      1.366877      -0.758597
Bq      1.176738      -0.000021      -1.000631
Bq      1.178115      -0.000319      0.999368
Bq      -0.777279      -0.000094      -0.988745
Bq      -0.748047      -0.000407      1.011042
Bq      -0.941484      -0.000678      1.133921
Bq      -2.752912      -0.000444      0.286141
Bq      -0.030058      -0.000336      0.287232
Bq      1.177427      -0.000170      -0.000632
Bq      -0.762663      -0.000251      0.011148
Bq      -1.847198      -0.000561      0.710031


