%nprocshared=40
%mem=90gb
%chk=hemi_opt_NICS.chk
#p nmr=giao wb97x/aug-cc-pvdz nosymm guess=save

File Created by py.Aroma 5

0 1
C      2.430479      -0.677828      0.299242
C      2.346492      0.749804      0.306341
C      1.173845      1.387272      -0.019175
N      0.127233      0.604831      -0.347663
B      0.089021      -0.823763      -0.357117
C      1.379528      -1.520799      -0.012585
C      -1.485118      -0.796301      -0.746038
C      -2.446456      -0.564547      0.410547
C      -2.264793      0.763535      0.469685
C      -1.295291      0.771021      -0.700332
H      3.401638      -1.106490      0.565319
H      3.221550      1.342353      0.568443
H      1.061378      2.472299      -0.034169
H      1.558746      -2.596617      0.015738
H      -1.870299      -1.275280      -1.652755
H      -3.031311      -1.259735      1.013895
H      -2.605975      1.547108      1.144820
H      -1.487538      1.407873      -1.571228
Bq      0.982776      -0.061651      0.939505
Bq      1.532757      -0.031843      -0.983157
Bq      -0.881221      -0.060625      0.432941
Bq      -0.400857      -0.061481      -1.508515
Bq      -1.114612      -0.076198      0.499298
Bq      -2.631217      0.163052      -0.782367
Bq      0.008197      0.011235      -0.066587
Bq      0.006675      0.007554      -0.071446
Bq      0.005494      -0.010678      -0.069709
Bq      0.016841      0.023596      -0.035946


